c colouring generated by benchmark framework
p edge 225 5180
v 1 20
v 2 6
v 3 5
v 4 15
v 5 4
v 6 7
v 7 19
v 8 3
v 9 10
v 10 1
v 11 2
v 12 14
v 13 21
v 14 0
v 15 9
v 16 13
v 17 3
v 18 10
v 19 1
v 20 19
v 21 8
v 22 14
v 23 0
v 24 20
v 25 15
v 26 12
v 27 6
v 28 5
v 29 4
v 30 7
v 31 0
v 32 17
v 33 22
v 34 8
v 35 15
v 36 12
v 37 21
v 38 9
v 39 7
v 40 4
v 41 20
v 42 13
v 43 18
v 44 16
v 45 14
v 46 19
v 47 20
v 48 1
v 49 17
v 50 22
v 51 4
v 52 3
v 53 14
v 54 21
v 55 18
v 56 6
v 57 5
v 58 10
v 59 12
v 60 2
v 61 16
v 62 4
v 63 2
v 64 10
v 65 1
v 66 18
v 67 11
v 68 7
v 69 0
v 70 19
v 71 17
v 72 22
v 73 8
v 74 3
v 75 13
v 76 17
v 77 5
v 78 20
v 79 6
v 80 14
v 81 21
v 82 16
v 83 13
v 84 22
v 85 10
v 86 0
v 87 3
v 88 12
v 89 19
v 90 4
v 91 4
v 92 7
v 93 3
v 94 12
v 95 18
v 96 20
v 97 10
v 98 11
v 99 6
v 100 5
v 101 15
v 102 16
v 103 9
v 104 13
v 105 0
v 106 8
v 107 14
v 108 0
v 109 13
v 110 5
v 111 11
v 112 2
v 113 16
v 114 3
v 115 22
v 116 21
v 117 1
v 118 20
v 119 6
v 120 15
v 121 22
v 122 16
v 123 12
v 124 19
v 125 2
v 126 9
v 127 15
v 128 4
v 129 18
v 130 13
v 131 8
v 132 0
v 133 7
v 134 10
v 135 5
v 136 6
v 137 10
v 138 11
v 139 3
v 140 12
v 141 19
v 142 13
v 143 17
v 144 8
v 145 14
v 146 9
v 147 21
v 148 4
v 149 2
v 150 18
v 151 9
v 152 8
v 153 14
v 154 18
v 155 20
v 156 1
v 157 0
v 158 15
v 159 5
v 160 21
v 161 11
v 162 2
v 163 19
v 164 17
v 165 22
v 166 18
v 167 22
v 168 4
v 169 11
v 170 17
v 171 16
v 172 20
v 173 21
v 174 2
v 175 8
v 176 5
v 177 15
v 178 0
v 179 14
v 180 6
v 181 7
v 182 21
v 183 8
v 184 2
v 185 6
v 186 10
v 187 22
v 188 18
v 189 4
v 190 17
v 191 3
v 192 9
v 193 13
v 194 15
v 195 20
v 196 14
v 197 0
v 198 15
v 199 20
v 200 9
v 201 2
v 202 6
v 203 10
v 204 13
v 205 11
v 206 1
v 207 7
v 208 3
v 209 5
v 210 19
v 211 21
v 212 19
v 213 13
v 214 4
v 215 16
v 216 15
v 217 5
v 218 20
v 219 17
v 220 3
v 221 10
v 222 11
v 223 1
v 224 18
v 225 12
